(declare-fun ExpandObjSwitcher () Real)
(declare-fun CreateAsClass () Bool)
(declare-fun ExpandObjSwitcher_2 () Real)
(declare-fun Constructed_Argument_t () String)
(declare-fun Constructed_Argument_2_t () String)
(assert (= ExpandObjSwitcher 1.0))
(assert CreateAsClass)
(assert (= ExpandObjSwitcher_2 4.0))
(assert (= Constructed_Argument_t "object"))
(assert (= Constructed_Argument_2_t "string"))
(check-sat)
